StringID   Type       x          y          demand     ReadyTime  DueDate    ServiceTime wp1 wp2 wp3 wp4 wp5 wp6 wp7 wp8 wp9 wp10 wp11 wp12 wp13 wp14 wp15 wp16
D0         d          40.0       50.0       0.0        0.0        960.0      0.0         6   7   8   9   10  11  12  13  14  15   16   17   18   19   20   21
S0         f          40.0       50.0       0.0        0.0        960.0      0.0         0.2 0.4 0.6 1   1   1   1   1   1   1    1    0.6  0.4  0.2  0    0
S1         f          73.0       52.0       0.0        0.0        960.0      0.0         0.2 0.4 0.6 1   1   1   1   1   1   1    1    0.6  0.4  0.2  0    0
S2         f          90.0       55.0       0.0        0.0        960.0      0.0         0.2 0.4 0.6 1   1   1   1   1   1   1    1    0.6  0.4  0.2  0    0
S3         f          55.0       79.0       0.0        0.0        960.0      0.0         0.2 0.4 0.6 1   1   1   1   1   1   1    1    0.6  0.4  0.2  0    0
S4         f          69.0       89.0       0.0        0.0        960.0      0.0         0   0.1 0.2 0.3 0.3 0.2 0.2 0.2 0.2 0.3  0.3  0.2  0.1  0.0  0    0
S5         f          32.0       80.0       0.0        0.0        960.0      0.0         0   0.1 0.2 0.3 0.3 0.2 0.2 0.2 0.2 0.3  0.3  0.2  0.1  0.0  0    0
S6         f          39.0       96.0       0.0        0.0        960.0      0.0         0   0.1 0.2 0.3 0.3 0.2 0.2 0.2 0.2 0.3  0.3  0.2  0.1  0.0  0    0
S7         f          23.0       80.0       0.0        0.0        960.0      0.0         0.2 0.4 0.6 1   1   1   1   1   1   1    1    0.6  0.4  0.2  0    0
S8         f          4.0        83.0       0.0        0.0        960.0      0.0         0.2 0.4 0.6 1   1   1   1   1   1   1    1    0.6  0.4  0.2  0    0
S9         f          18.0       58.0       0.0        0.0        960.0      0.0         0   0.1 0.2 0.3 0.3 0.2 0.2 0.2 0.2 0.3  0.3  0.2  0.1  0.0  0    0
S10        f          1.0        56.0       0.0        0.0        960.0      0.0         0   0.1 0.2 0.3 0.3 0.2 0.2 0.2 0.2 0.3  0.3  0.2  0.1  0.0  0    0
S11        f          13.0       31.0       0.0        0.0        960.0      0.0         0   0.1 0.2 0.3 0.3 0.2 0.2 0.2 0.2 0.3  0.3  0.2  0.1  0.0  0    0
S12        f          -5.0       38.0       0.0        0.0        960.0      0.0         0.2 0.4 0.6 1   1   1   1   1   1   1    1    0.6  0.4  0.2  0    0
S13        f          26.0       37.0       0.0        0.0        960.0      0.0         0.2 0.4 0.6 1   1   1   1   1   1   1    1    0.6  0.4  0.2  0    0
S14        f          28.0       13.0       0.0        0.0        960.0      0.0         0.2 0.4 0.6 1   1   1   1   1   1   1    1    0.6  0.4  0.2  0    0
S15        f          39.0       31.0       0.0        0.0        960.0      0.0         0   0.1 0.2 0.3 0.3 0.2 0.2 0.2 0.2 0.3  0.3  0.2  0.1  0.0  0    0
S16        f          48.0       11.0       0.0        0.0        960.0      0.0         0   0.1 0.2 0.3 0.3 0.2 0.2 0.2 0.2 0.3  0.3  0.2  0.1  0.0  0    0
S17        f          59.0       17.0       0.0        0.0        960.0      0.0         0.2 0.4 0.6 1   1   1   1   1   1   1    1    0.6  0.4  0.2  0    0
S18        f          73.0       23.0       0.0        0.0        960.0      0.0         0.2 0.4 0.6 1   1   1   1   1   1   1    1    0.6  0.4  0.2  0    0
S19        f          74.0       32.0       0.0        0.0        960.0      0.0         0   0.1 0.2 0.3 0.3 0.2 0.2 0.2 0.2 0.3  0.3  0.2  0.1  0.0  0    0
S20        f          90.0       44.0       0.0        0.0        960.0      0.0         0.2 0.4 0.6 1   1   1   1   1   1   1    1    0.6  0.4  0.2  0    0        
C26        c          95.0       30.0       30.0       422.0      891.0      10.0       
C27        c          95.0       35.0       20.0       320.0      892.0      10.0       
C28        c          92.0       30.0       10.0       56.0       557.0      10.0       
C29        c          90.0       35.0       10.0       333.0      789.0      10.0       
C30        c          88.0       30.0       10.0       251.0      701.0      10.0       
C31        c          88.0       35.0       20.0       255.0      899.0      10.0       
C32        c          87.0       30.0       10.0       52.0       522.0      10.0       
C33        c          85.0       25.0       10.0       359.0      898.0      10.0       
C34        c          85.0       35.0       30.0       48.0       534.0      10.0      
C35        c          67.0       85.0       20.0       350.0      905.0      10.0       
C36        c          65.0       85.0       40.0       338.0      816.0      10.0       
C37        c          65.0       82.0       10.0       41.0       614.0      10.0       
C38        c          62.0       80.0       30.0       38.0       555.0      10.0       
C39        c          60.0       80.0       10.0       378.0      913.0      10.0       
C40        c          60.0       85.0       30.0       357.0      787.0      10.0       
C41        c          58.0       75.0       20.0       73.0       561.0      10.0       
C42        c          55.0       80.0       10.0       378.0      782.0      10.0       
C43        c          55.0       85.0       20.0       39.0       610.0      10.0       
C44        c          55.0       82.0       10.0       262.0      758.0      10.0       
C68        c          40.0       60.0       21.0       422.0      940.0      10.0       
C69        c          31.0       52.0       27.0       10.0       488.0      10.0       
C70        c          35.0       69.0       23.0       242.0      674.0      10.0       
C71        c          65.0       55.0       14.0       512.0      924.0      10.0       
C72        c          63.0       65.0       8.0        132.0      650.0      10.0       
C80        c          47.0       47.0       13.0       137.0      681.0      10.0       


F Vehicle fuel tank capacity /12/
Q Vehicle load capacity /1000.0/
r fuel consumption rate /0.155/
g inverse refueling rate /0.5/
v average Velocity /1.0/
